# (written by ASE)
clear
atom_style atomic
units metal
boundary f f f
atom_modify sort 0 0.0

### interactions
pair_style eam
read_data data_lammps_cu
pair_coeff * * Cu_u3.eam
mass 1 63.546

### run
fix fix_nve all nve
dump dump_all all custom 1 /home/jovyan/MMM_2024/Exercise_2/trj_lammps.bin id type x y z vx vy vz fx fy fz
thermo_style custom step temp press cpu pxx pyy pzz pxy pxz pyz ke pe etotal vol lx ly lz atoms
thermo_modify flush yes format float %23.16g
thermo 1
run 0
print "__end_of_ase_invoked_calculation__"
log /dev/stdout